NAME : R1_4_1
TYPE : VRPSPD
DIMENSION : 401
VEHICLES : 54
CAPACITY : 200
DISTANCE : 999999
SCALE : 1000
EDGE_WEIGHT_TYPE : EXACT_2D
NODE_COORD_SECTION
1 100 100
2 20 59
3 178 61
4 39 186
5 182 110
6 186 65
7 58 19
8 60 71
9 86 150
10 40 95
11 123 90
12 55 100
13 18 35
14 88 152
15 26 41
16 24 131
17 97 192
18 63 44
19 1 54
20 134 157
21 176 132
22 155 17
23 159 187
24 174 194
25 136 90
26 1 149
27 83 180
28 63 141
29 39 112
30 184 140
31 50 31
32 28 160
33 143 179
34 74 163
35 39 151
36 171 69
37 153 19
38 111 189
39 5 122
40 159 105
41 49 99
42 53 175
43 48 106
44 101 127
45 149 78
46 78 169
47 157 142
48 75 170
49 156 93
50 5 130
51 158 81
52 85 85
53 189 83
54 66 3
55 45 95
56 162 162
57 84 188
58 38 101
59 55 51
60 176 58
61 48 94
62 173 147
63 35 9
64 112 42
65 11 118
66 155 22
67 42 174
68 154 7
69 181 39
70 60 153
71 171 36
72 158 132
73 112 174
74 97 129
75 68 191
76 124 191
77 86 110
78 158 20
79 130 55
80 180 66
81 18 59
82 139 158
83 37 146
84 17 32
85 86 69
86 67 70
87 119 113
88 136 12
89 49 71
90 121 48
91 118 117
92 104 88
93 89 176
94 46 40
95 78 72
96 69 150
97 6 120
98 154 29
99 70 130
100 172 186
101 23 168
102 65 42
103 53 180
104 90 4
105 76 102
106 30 67
107 138 72
108 68 115
109 84 81
110 104 142
111 104 5
112 31 63
113 30 183
114 141 146
115 159 196
116 20 72
117 113 100
118 184 101
119 82 48
120 57 157
121 67 138
122 181 70
123 63 149
124 41 43
125 74 67
126 138 61
127 182 9
128 104 176
129 60 184
130 63 192
131 77 119
132 137 41
133 151 180
134 63 151
135 146 3
136 186 8
137 51 162
138 57 118
139 107 96
140 154 184
141 46 5
142 80 190
143 100 144
144 121 46
145 177 134
146 155 107
147 62 152
148 148 38
149 178 127
150 41 16
151 144 92
152 122 13
153 197 7
154 9 122
155 27 97
156 149 176
157 106 41
158 19 51
159 8 89
160 151 132
161 56 148
162 122 38
163 90 174
164 114 122
165 108 148
166 41 73
167 149 103
168 42 148
169 103 97
170 107 133
171 95 50
172 114 183
173 113 105
174 142 27
175 25 165
176 168 58
177 200 162
178 135 110
179 66 98
180 55 87
181 116 52
182 125 53
183 115 50
184 97 9
185 184 110
186 110 110
187 63 116
188 152 122
189 94 119
190 46 131
191 81 183
192 3 101
193 191 124
194 135 45
195 125 49
196 173 42
197 172 179
198 23 123
199 12 15
200 118 45
201 10 20
202 161 3
203 19 38
204 62 138
205 145 71
206 32 23
207 42 72
208 193 127
209 183 170
210 36 104
211 124 165
212 198 97
213 168 146
214 121 50
215 92 178
216 68 156
217 115 75
218 59 139
219 112 78
220 7 119
221 123 59
222 5 162
223 147 193
224 186 149
225 122 58
226 113 158
227 76 93
228 40 115
229 53 79
230 172 55
231 137 10
232 37 177
233 131 136
234 100 53
235 113 14
236 159 129
237 114 72
238 157 196
239 148 196
240 24 197
241 85 193
242 68 40
243 23 74
244 85 164
245 111 129
246 69 64
247 174 185
248 165 156
249 26 45
250 127 143
251 75 134
252 141 132
253 8 8
254 12 113
255 28 187
256 41 186
257 62 38
258 16 141
259 78 118
260 113 151
261 40 130
262 142 60
263 116 4
264 94 31
265 28 15
266 152 190
267 7 108
268 42 165
269 182 89
270 125 34
271 118 139
272 148 157
273 59 24
274 75 173
275 143 103
276 188 70
277 78 136
278 146 166
279 103 25
280 152 68
281 137 59
282 98 77
283 136 111
284 198 16
285 154 59
286 176 134
287 179 151
288 125 78
289 114 112
290 172 66
291 20 113
292 67 127
293 70 37
294 109 197
295 135 171
296 181 156
297 35 160
298 193 12
299 98 89
300 23 176
301 54 37
302 151 179
303 116 118
304 127 60
305 103 77
306 17 166
307 46 22
308 42 144
309 44 10
310 108 187
311 64 156
312 83 81
313 199 123
314 120 39
315 109 45
316 114 153
317 87 30
318 131 92
319 137 158
320 65 77
321 191 138
322 161 158
323 164 37
324 47 118
325 111 98
326 144 59
327 28 127
328 34 145
329 165 181
330 50 135
331 105 26
332 70 28
333 10 60
334 172 161
335 51 112
336 73 81
337 69 133
338 71 114
339 84 180
340 112 6
341 31 79
342 99 45
343 127 39
344 62 15
345 71 131
346 197 29
347 138 31
348 138 69
349 25 48
350 59 83
351 126 199
352 32 47
353 188 194
354 109 85
355 13 139
356 74 55
357 6 193
358 130 149
359 45 55
360 126 100
361 178 88
362 129 176
363 80 167
364 179 5
365 12 131
366 15 197
367 66 196
368 110 184
369 71 145
370 45 142
371 56 19
372 26 197
373 179 95
374 196 126
375 32 190
376 101 29
377 83 112
378 125 180
379 145 19
380 150 26
381 98 193
382 28 77
383 143 116
384 175 60
385 56 90
386 88 15
387 89 153
388 38 183
389 109 48
390 89 39
391 195 132
392 108 141
393 22 61
394 110 8
395 64 123
396 139 97
397 168 119
398 151 66
399 29 121
400 32 166
401 88 143
PICKUP_AND_DELIVERY_SECTION
1 0 0 10000000 0 0 0
2 0 0 10000000 0 48 20
3 0 0 10000000 0 14 19
4 0 0 10000000 0 35 5
5 0 0 10000000 0 8 15
6 0 0 10000000 0 8 39
7 0 0 10000000 0 44 10
8 0 0 10000000 0 32 22
9 0 0 10000000 0 47 22
10 0 0 10000000 0 36 25
11 0 0 10000000 0 23 21
12 0 0 10000000 0 31 22
13 0 0 10000000 0 45 24
14 0 0 10000000 0 48 13
15 0 0 10000000 0 28 14
16 0 0 10000000 0 6 31
17 0 0 10000000 0 33 23
18 0 0 10000000 0 12 14
19 0 0 10000000 0 5 14
20 0 0 10000000 0 12 20
21 0 0 10000000 0 9 10
22 0 0 10000000 0 39 32
23 0 0 10000000 0 37 9
24 0 0 10000000 0 17 8
25 0 0 10000000 0 23 18
26 0 0 10000000 0 26 35
27 0 0 10000000 0 10 15
28 0 0 10000000 0 14 14
29 0 0 10000000 0 33 26
30 0 0 10000000 0 31 15
31 0 0 10000000 0 17 20
32 0 0 10000000 0 36 27
33 0 0 10000000 0 45 24
34 0 0 10000000 0 33 21
35 0 0 10000000 0 19 26
36 0 0 10000000 0 9 19
37 0 0 10000000 0 32 3
38 0 0 10000000 0 28 3
39 0 0 10000000 0 1 15
40 0 0 10000000 0 28 20
41 0 0 10000000 0 12 32
42 0 0 10000000 0 1 28
43 0 0 10000000 0 42 23
44 0 0 10000000 0 26 31
45 0 0 10000000 0 47 6
46 0 0 10000000 0 45 10
47 0 0 10000000 0 38 13
48 0 0 10000000 0 12 17
49 0 0 10000000 0 37 25
50 0 0 10000000 0 28 15
51 0 0 10000000 0 37 23
52 0 0 10000000 0 19 14
53 0 0 10000000 0 17 43
54 0 0 10000000 0 29 9
55 0 0 10000000 0 46 15
56 0 0 10000000 0 4 20
57 0 0 10000000 0 25 17
58 0 0 10000000 0 48 10
59 0 0 10000000 0 10 17
60 0 0 10000000 0 11 21
61 0 0 10000000 0 39 15
62 0 0 10000000 0 40 19
63 0 0 10000000 0 32 29
64 0 0 10000000 0 6 33
65 0 0 10000000 0 42 33
66 0 0 10000000 0 22 24
67 0 0 10000000 0 41 13
68 0 0 10000000 0 46 32
69 0 0 10000000 0 48 11
70 0 0 10000000 0 5 11
71 0 0 10000000 0 46 6
72 0 0 10000000 0 33 12
73 0 0 10000000 0 6 20
74 0 0 10000000 0 15 11
75 0 0 10000000 0 6 15
76 0 0 10000000 0 25 24
77 0 0 10000000 0 33 18
78 0 0 10000000 0 32 19
79 0 0 10000000 0 24 28
80 0 0 10000000 0 31 13
81 0 0 10000000 0 21 20
82 0 0 10000000 0 33 9
83 0 0 10000000 0 38 10
84 0 0 10000000 0 19 16
85 0 0 10000000 0 14 14
86 0 0 10000000 0 46 18
87 0 0 10000000 0 38 35
88 0 0 10000000 0 29 21
89 0 0 10000000 0 21 36
90 0 0 10000000 0 28 17
91 0 0 10000000 0 15 20
92 0 0 10000000 0 48 25
93 0 0 10000000 0 22 13
94 0 0 10000000 0 37 15
95 0 0 10000000 0 48 9
96 0 0 10000000 0 44 17
97 0 0 10000000 0 11 25
98 0 0 10000000 0 11 19
99 0 0 10000000 0 29 8
100 0 0 10000000 0 35 35
101 0 0 10000000 0 37 13
102 0 0 10000000 0 19 12
103 0 0 10000000 0 11 4
104 0 0 10000000 0 22 22
105 0 0 10000000 0 14 15
106 0 0 10000000 0 39 7
107 0 0 10000000 0 25 8
108 0 0 10000000 0 46 20
109 0 0 10000000 0 17 11
110 0 0 10000000 0 12 24
111 0 0 10000000 0 24 26
112 0 0 10000000 0 10 11
113 0 0 10000000 0 22 9
114 0 0 10000000 0 17 15
115 0 0 10000000 0 33 6
116 0 0 10000000 0 37 21
117 0 0 10000000 0 38 5
118 0 0 10000000 0 37 17
119 0 0 10000000 0 12 8
120 0 0 10000000 0 30 26
121 0 0 10000000 0 47 11
122 0 0 10000000 0 7 25
123 0 0 10000000 0 6 17
124 0 0 10000000 0 25 30
125 0 0 10000000 0 41 2
126 0 0 10000000 0 28 19
127 0 0 10000000 0 17 30
128 0 0 10000000 0 48 19
129 0 0 10000000 0 33 7
130 0 0 10000000 0 12 12
131 0 0 10000000 0 12 17
132 0 0 10000000 0 14 15
133 0 0 10000000 0 23 14
134 0 0 10000000 0 6 22
135 0 0 10000000 0 35 24
136 0 0 10000000 0 15 31
137 0 0 10000000 0 7 20
138 0 0 10000000 0 25 21
139 0 0 10000000 0 24 23
140 0 0 10000000 0 44 36
141 0 0 10000000 0 34 8
142 0 0 10000000 0 18 13
143 0 0 10000000 0 23 17
144 0 0 10000000 0 13 3
145 0 0 10000000 0 42 26
146 0 0 10000000 0 37 10
147 0 0 10000000 0 31 19
148 0 0 10000000 0 9 6
149 0 0 10000000 0 32 23
150 0 0 10000000 0 2 6
151 0 0 10000000 0 32 23
152 0 0 10000000 0 38 27
153 0 0 10000000 0 35 13
154 0 0 10000000 0 17 17
155 0 0 10000000 0 21 30
156 0 0 10000000 0 26 16
157 0 0 10000000 0 37 13
158 0 0 10000000 0 48 19
159 0 0 10000000 0 30 13
160 0 0 10000000 0 31 6
161 0 0 10000000 0 10 20
162 0 0 10000000 0 4 5
163 0 0 10000000 0 48 18
164 0 0 10000000 0 34 10
165 0 0 10000000 0 37 21
166 0 0 10000000 0 5 21
167 0 0 10000000 0 37 17
168 0 0 10000000 0 29 14
169 0 0 10000000 0 43 9
170 0 0 10000000 0 13 22
171 0 0 10000000 0 31 25
172 0 0 10000000 0 10 35
173 0 0 10000000 0 1 23
174 0 0 10000000 0 13 11
175 0 0 10000000 0 1 24
176 0 0 10000000 0 29 29
177 0 0 10000000 0 2 24
178 0 0 10000000 0 19 7
179 0 0 10000000 0 22 2
180 0 0 10000000 0 27 30
181 0 0 10000000 0 37 10
182 0 0 10000000 0 40 24
183 0 0 10000000 0 38 14
184 0 0 10000000 0 33 13
185 0 0 10000000 0 48 23
186 0 0 10000000 0 35 14
187 0 0 10000000 0 7 21
188 0 0 10000000 0 18 25
189 0 0 10000000 0 23 25
190 0 0 10000000 0 12 21
191 0 0 10000000 0 29 11
192 0 0 10000000 0 31 33
193 0 0 10000000 0 46 7
194 0 0 10000000 0 30 7
195 0 0 10000000 0 35 17
196 0 0 10000000 0 10 3
197 0 0 10000000 0 9 1
198 0 0 10000000 0 9 15
199 0 0 10000000 0 2 16
200 0 0 10000000 0 30 28
201 0 0 10000000 0 24 14
202 0 0 10000000 0 37 22
203 0 0 10000000 0 33 16
204 0 0 10000000 0 14 15
205 0 0 10000000 0 5 10
206 0 0 10000000 0 37 10
207 0 0 10000000 0 29 18
208 0 0 10000000 0 23 7
209 0 0 10000000 0 26 17
210 0 0 10000000 0 3 11
211 0 0 10000000 0 26 24
212 0 0 10000000 0 47 14
213 0 0 10000000 0 46 19
214 0 0 10000000 0 16 24
215 0 0 10000000 0 37 26
216 0 0 10000000 0 40 28
217 0 0 10000000 0 44 26
218 0 0 10000000 0 29 26
219 0 0 10000000 0 13 34
220 0 0 10000000 0 8 30
221 0 0 10000000 0 37 18
222 0 0 10000000 0 11 26
223 0 0 10000000 0 44 29
224 0 0 10000000 0 10 25
225 0 0 10000000 0 20 15
226 0 0 10000000 0 5 19
227 0 0 10000000 0 48 7
228 0 0 10000000 0 13 41
229 0 0 10000000 0 19 14
230 0 0 10000000 0 15 11
231 0 0 10000000 0 30 21
232 0 0 10000000 0 33 21
233 0 0 10000000 0 33 18
234 0 0 10000000 0 23 22
235 0 0 10000000 0 23 20
236 0 0 10000000 0 17 10
237 0 0 10000000 0 11 22
238 0 0 10000000 0 13 30
239 0 0 10000000 0 28 13
240 0 0 10000000 0 27 17
241 0 0 10000000 0 9 25
242 0 0 10000000 0 43 23
243 0 0 10000000 0 1 21
244 0 0 10000000 0 36 23
245 0 0 10000000 0 5 27
246 0 0 10000000 0 35 48
247 0 0 10000000 0 5 15
248 0 0 10000000 0 36 17
249 0 0 10000000 0 14 8
250 0 0 10000000 0 7 7
251 0 0 10000000 0 48 16
252 0 0 10000000 0 31 18
253 0 0 10000000 0 47 11
254 0 0 10000000 0 18 2
255 0 0 10000000 0 7 16
256 0 0 10000000 0 1 27
257 0 0 10000000 0 16 19
258 0 0 10000000 0 4 20
259 0 0 10000000 0 44 28
260 0 0 10000000 0 25 2
261 0 0 10000000 0 47 1
262 0 0 10000000 0 23 13
263 0 0 10000000 0 47 13
264 0 0 10000000 0 48 18
265 0 0 10000000 0 45 18
266 0 0 10000000 0 35 10
267 0 0 10000000 0 1 32
268 0 0 10000000 0 15 22
269 0 0 10000000 0 12 21
270 0 0 10000000 0 35 14
271 0 0 10000000 0 10 13
272 0 0 10000000 0 1 21
273 0 0 10000000 0 7 19
274 0 0 10000000 0 19 30
275 0 0 10000000 0 29 15
276 0 0 10000000 0 17 13
277 0 0 10000000 0 4 31
278 0 0 10000000 0 17 24
279 0 0 10000000 0 34 2
280 0 0 10000000 0 43 9
281 0 0 10000000 0 36 23
282 0 0 10000000 0 15 7
283 0 0 10000000 0 32 19
284 0 0 10000000 0 17 18
285 0 0 10000000 0 44 17
286 0 0 10000000 0 33 14
287 0 0 10000000 0 37 20
288 0 0 10000000 0 9 11
289 0 0 10000000 0 34 17
290 0 0 10000000 0 21 23
291 0 0 10000000 0 13 22
292 0 0 10000000 0 40 21
293 0 0 10000000 0 29 10
294 0 0 10000000 0 39 15
295 0 0 10000000 0 46 27
296 0 0 10000000 0 34 21
297 0 0 10000000 0 25 16
298 0 0 10000000 0 32 3
299 0 0 10000000 0 22 29
300 0 0 10000000 0 34 20
301 0 0 10000000 0 23 21
302 0 0 10000000 0 33 12
303 0 0 10000000 0 32 12
304 0 0 10000000 0 22 23
305 0 0 10000000 0 38 21
306 0 0 10000000 0 16 22
307 0 0 10000000 0 32 10
308 0 0 10000000 0 25 30
309 0 0 10000000 0 38 16
310 0 0 10000000 0 29 22
311 0 0 10000000 0 44 4
312 0 0 10000000 0 31 21
313 0 0 10000000 0 35 20
314 0 0 10000000 0 46 31
315 0 0 10000000 0 35 14
316 0 0 10000000 0 22 23
317 0 0 10000000 0 45 10
318 0 0 10000000 0 37 22
319 0 0 10000000 0 4 3
320 0 0 10000000 0 15 19
321 0 0 10000000 0 39 2
322 0 0 10000000 0 19 24
323 0 0 10000000 0 26 19
324 0 0 10000000 0 12 23
325 0 0 10000000 0 44 16
326 0 0 10000000 0 23 18
327 0 0 10000000 0 40 24
328 0 0 10000000 0 48 21
329 0 0 10000000 0 22 22
330 0 0 10000000 0 15 8
331 0 0 10000000 0 4 24
332 0 0 10000000 0 43 11
333 0 0 10000000 0 38 16
334 0 0 10000000 0 16 6
335 0 0 10000000 0 45 13
336 0 0 10000000 0 45 19
337 0 0 10000000 0 36 8
338 0 0 10000000 0 41 25
339 0 0 10000000 0 9 12
340 0 0 10000000 0 7 39
341 0 0 10000000 0 8 19
342 0 0 10000000 0 44 21
343 0 0 10000000 0 20 13
344 0 0 10000000 0 18 29
345 0 0 10000000 0 16 11
346 0 0 10000000 0 33 16
347 0 0 10000000 0 39 10
348 0 0 10000000 0 41 9
349 0 0 10000000 0 43 11
350 0 0 10000000 0 38 24
351 0 0 10000000 0 16 18
352 0 0 10000000 0 20 27
353 0 0 10000000 0 8 9
354 0 0 10000000 0 23 3
355 0 0 10000000 0 38 34
356 0 0 10000000 0 1 3
357 0 0 10000000 0 29 13
358 0 0 10000000 0 35 17
359 0 0 10000000 0 12 11
360 0 0 10000000 0 43 36
361 0 0 10000000 0 24 23
362 0 0 10000000 0 21 18
363 0 0 10000000 0 15 10
364 0 0 10000000 0 39 9
365 0 0 10000000 0 25 28
366 0 0 10000000 0 16 10
367 0 0 10000000 0 47 23
368 0 0 10000000 0 45 10
369 0 0 10000000 0 47 7
370 0 0 10000000 0 18 15
371 0 0 10000000 0 41 22
372 0 0 10000000 0 17 17
373 0 0 10000000 0 7 19
374 0 0 10000000 0 41 6
375 0 0 10000000 0 13 13
376 0 0 10000000 0 18 7
377 0 0 10000000 0 24 28
378 0 0 10000000 0 1 1
379 0 0 10000000 0 30 20
380 0 0 10000000 0 7 16
381 0 0 10000000 0 8 27
382 0 0 10000000 0 24 12
383 0 0 10000000 0 31 18
384 0 0 10000000 0 47 18
385 0 0 10000000 0 27 15
386 0 0 10000000 0 28 22
387 0 0 10000000 0 34 12
388 0 0 10000000 0 30 10
389 0 0 10000000 0 18 3
390 0 0 10000000 0 44 19
391 0 0 10000000 0 10 6
392 0 0 10000000 0 23 13
393 0 0 10000000 0 12 17
394 0 0 10000000 0 34 26
395 0 0 10000000 0 35 17
396 0 0 10000000 0 10 4
397 0 0 10000000 0 28 14
398 0 0 10000000 0 47 11
399 0 0 10000000 0 29 46
400 0 0 10000000 0 21 17
401 0 0 10000000 0 29 17
DEPOT_SECTION
1 
-1
EOF
